919214
26, 12, 19, 59, 90, 24, 43, 52, 65, 54, 98, 11, 23, 71, 34, 28, 46, 2, 27, 64, 3, 5, 89, 85, 8, 53, 91, 44, 55, 68, 99, 80, 48, 37, 74, 70, 1, 4, 66, 7, 73, 84, 22, 92, 39, 14, 81, 86, 45, 87, 76, 38, 36, 50, 88, 83, 15, 61, 58, 16, 82, 67, 42, 35, 97, 72, 63, 13, 32, 60, 31, 62, 93, 49, 56, 69, 75, 6, 41, 18, 77, 10, 96, 30, 21, 20, 33, 9, 57, 47, 95, 25, 78, 51, 79, 29, 40, 94, 17
